17	4
16	16	15	14	
0	0	0	0	0	3	2	3	4	
4	6	9	9	5	1	13	
6	5	6	2	3	3	8	17	17	
1	2	3	3	2	2	5	9	
9	2	10	4	5	3	6	17	17	
25	4	9	4	8	3	7	10	15	
225	10	9	3	3	2	13	16	
50	2	4	4	5	1	9	
100	5	4	4	6	2	14	17	
50	8	7	10	7	2	11	13	
50	9	7	1	9	2	12	17	
100	4	2	10	1	3	14	17	17	
7	1	8	6	5	2	17	17	
9	8	9	4	7	3	16	17	17	
2	7	9	4	6	2	17	17	
2	5	6	5	8	1	17	
0	0	0	0	0	0	
